;; Preprocessed for Astral solver
(set-info :status sat)
;; variables
(declare-const x0 Loc)
(declare-const x1 Loc)
(declare-const x2 Loc)
(declare-const x3 Loc)
(declare-const x4 Loc)
(declare-const x5 Loc)
(declare-const x6 Loc)
(declare-const x7 Loc)
(declare-const x8 Loc)
(declare-const x9 Loc)
(declare-const x10 Loc)
(declare-const x11 Loc)
(declare-const x12 Loc)
(declare-const x13 Loc)
(declare-const x14 Loc)
(declare-const x15 Loc)
(declare-const x16 Loc)
(declare-const x17 Loc)
(declare-const x18 Loc)
(declare-const x19 Loc)
(declare-const x20 Loc)
(declare-const x21 Loc)
(declare-const x22 Loc)
(declare-const x23 Loc)

(assert 
		(sep 
			(= nil nil)
		(sep 
			(pto x19 x13)
			(ls x1 x18 )
			(pto x11 x18)
			(pto x18 x16)
			(ls x16 x19 )
			(pto x2 x19)
			(ls x4 x12 )
			(pto x6 x7)
			(ls x10 x2 )
			(pto x5 x8)
			(pto x14 x6)
			(pto x3 x10)
			(pto x7 x18)
			(pto x12 x15)
			(pto x9 x16)
			(pto x17 x5)
			(pto x13 x9)
			(pto x15 x17)
			(pto x8 x7)
		)

		)

)

(assert (not 
		(sep 
			(ls x4 x12 )
			(ls x14 x6 )
			(ls x12 x15 )
			(ls x11 x18 )
			(ls x15 x7 )
			(ls x6 x18 )
			(ls x1 x16 )
			(ls x16 x19 )
			(ls x3 x16 )
		)

))

(check-sat)
